benchmarks_vrp/CMT3/tsp_classic/CMT3_2.vrp
NAME: CMT3_2
TYPE: CVRP
COMMENT: 826.14 - Cluster Nr.2
DIMENSION: 17
CAPACITY: 200
EDGE_WEIGHT_TYPE: EUC_2D
NODE_COORD_TYPE: TWOD_COORDS
NODE_COORD_SECTION: 
3 44 17
6 30 25
4 23 3
16 24 12
13 40 25
14 25 21
17 42 7
9 45 20
7 45 10
15 35 35
2 30 5
12 36 26
11 32 12
1 28 18
5 35 17
10 46 13
8 47 16
DEPOT_SECTION: 
15
-1
DEMAND_SECTION: 
1 26
13 9
7 18
16 5
17 5
9 11
5 7
12 18
4 7
6 23
15 0
10 8
11 7
14 12
2 8
3 9
8 25
EOF
