benchmarks_vrp/CMT3/tsp_classic/CMT3_2.tour
NAME: CMT3_2 solution
TYPE: TOUR
TOUR_SECTION:
15 6 14 1 16 4 2 11 5 17 7 10 8 3 9 13 12 -1
-1
EOF